
Value of objective function: 3

Actual values of the variables:
bu10_suarez_o1                  0
gu13_tbd_o1                     1
gu13_tbd_o2                     0
gu13_tbd_o3                     0
gu9_tbd_o1                      0
bu8_perry_o1                    0
bu12_martin_o1                  1
bu12_martin_o2                  0
bu12_martin_o3                  0
bu14_tbd_o1                     1
bu14_tbd_o2                     0
bu14_tbd_o3                     0
bu9_serrano_o1                  0
bu12_suarez_o1                  0
gu11_cardinale_o1               0
bu11_anderson_o1                0
bu10_suarez_o1_ada_w            0
bu10_suarez_o1_ada_e            0
gu13_tbd_o1_ada_w               1
gu13_tbd_o1_ada_e               0
gu13_tbd_ada_w_w_300            1
gu13_tbd_ada_w_w_330            1
gu13_tbd_ada_w_f_300            1
gu13_tbd_ada_w_f_330            1
gu13_tbd_ada_e_w_300            0
gu13_tbd_ada_e_w_330            0
gu13_tbd_ada_e_f_300            0
gu13_tbd_ada_e_f_330            0
gu13_tbd_o2_ada_w               0
gu13_tbd_o2_ada_e               0
gu13_tbd_ada_w_w_500            0
gu13_tbd_ada_w_w_530            0
gu13_tbd_ada_w_f_500            0
gu13_tbd_ada_w_f_530            0
gu13_tbd_ada_e_w_500            0
gu13_tbd_ada_e_w_530            0
gu13_tbd_ada_e_f_500            0
gu13_tbd_ada_e_f_530            0
gu13_tbd_o3_ada_w               0
gu13_tbd_o3_ada_e               0
gu9_tbd_o1_ada_w                0
gu9_tbd_o1_ada_e                0
bu8_perry_o1_ada_w              0
bu8_perry_o1_ada_e              0
bu12_martin_o1_ada_w            0
bu12_martin_o1_ada_e            1
bu12_martin_ada_w_w_300            0
bu12_martin_ada_w_w_330            0
bu12_martin_ada_w_f_300            0
bu12_martin_ada_w_f_330            0
bu12_martin_ada_e_w_300            1
bu12_martin_ada_e_w_330            1
bu12_martin_ada_e_f_300            1
bu12_martin_ada_e_f_330            1
bu12_martin_o2_ada_w            0
bu12_martin_o2_ada_e            0
bu12_martin_ada_w_w_400            0
bu12_martin_ada_w_w_430            0
bu12_martin_ada_w_f_400            0
bu12_martin_ada_w_f_430            0
bu12_martin_ada_e_w_400            0
bu12_martin_ada_e_w_430            0
bu12_martin_ada_e_f_400            0
bu12_martin_ada_e_f_430            0
bu12_martin_o3_ada_w            0
bu12_martin_o3_ada_e            0
bu14_tbd_o1_ada_w               1
bu14_tbd_o1_ada_e               0
bu14_tbd_ada_w_w_400            1
bu14_tbd_ada_w_w_430            1
bu14_tbd_ada_w_f_400            1
bu14_tbd_ada_w_f_430            1
bu14_tbd_ada_e_w_400            0
bu14_tbd_ada_e_w_430            0
bu14_tbd_ada_e_f_400            0
bu14_tbd_ada_e_f_430            0
bu14_tbd_o2_ada_w               0
bu14_tbd_o2_ada_e               0
bu14_tbd_ada_w_w_500            0
bu14_tbd_ada_w_w_530            0
bu14_tbd_ada_w_f_500            0
bu14_tbd_ada_w_f_530            0
bu14_tbd_ada_e_w_500            0
bu14_tbd_ada_e_w_530            0
bu14_tbd_ada_e_f_500            0
bu14_tbd_ada_e_f_530            0
bu14_tbd_o3_ada_w               0
bu14_tbd_o3_ada_e               0
bu9_serrano_o1_ada_w            0
bu9_serrano_o1_ada_e            0
bu12_suarez_o1_ada_w            0
bu12_suarez_o1_ada_e            0
gu11_cardinale_o1_ada_w            0
gu11_cardinale_o1_ada_e            0
bu11_anderson_o1_ada_w            0
bu11_anderson_o1_ada_e            0
ada_w_w_300                     1
bu10_suarez_ada_w_w_300            0
gu9_tbd_ada_w_w_300             0
bu8_perry_ada_w_w_300            0
bu14_tbd_ada_w_w_300            0
bu9_serrano_ada_w_w_300            0
bu12_suarez_ada_w_w_300            0
gu11_cardinale_ada_w_w_300            0
bu11_anderson_ada_w_w_300            0
ada_w_w_330                     1
bu10_suarez_ada_w_w_330            0
gu9_tbd_ada_w_w_330             0
bu8_perry_ada_w_w_330            0
bu14_tbd_ada_w_w_330            0
bu9_serrano_ada_w_w_330            0
bu12_suarez_ada_w_w_330            0
gu11_cardinale_ada_w_w_330            0
bu11_anderson_ada_w_w_330            0
ada_w_w_400                     1
bu10_suarez_ada_w_w_400            0
gu13_tbd_ada_w_w_400            0
gu9_tbd_ada_w_w_400             0
bu8_perry_ada_w_w_400            0
bu9_serrano_ada_w_w_400            0
bu12_suarez_ada_w_w_400            0
gu11_cardinale_ada_w_w_400            0
bu11_anderson_ada_w_w_400            0
ada_w_w_430                     1
bu10_suarez_ada_w_w_430            0
gu13_tbd_ada_w_w_430            0
gu9_tbd_ada_w_w_430             0
bu8_perry_ada_w_w_430            0
bu9_serrano_ada_w_w_430            0
bu12_suarez_ada_w_w_430            0
gu11_cardinale_ada_w_w_430            0
bu11_anderson_ada_w_w_430            0
ada_w_w_500                     0
bu10_suarez_ada_w_w_500            0
gu9_tbd_ada_w_w_500             0
bu8_perry_ada_w_w_500            0
bu12_martin_ada_w_w_500            0
bu9_serrano_ada_w_w_500            0
bu12_suarez_ada_w_w_500            0
gu11_cardinale_ada_w_w_500            0
bu11_anderson_ada_w_w_500            0
ada_w_w_530                     0
bu10_suarez_ada_w_w_530            0
gu9_tbd_ada_w_w_530             0
bu8_perry_ada_w_w_530            0
bu12_martin_ada_w_w_530            0
bu9_serrano_ada_w_w_530            0
bu12_suarez_ada_w_w_530            0
gu11_cardinale_ada_w_w_530            0
bu11_anderson_ada_w_w_530            0
ada_w_f_300                     1
bu10_suarez_ada_w_f_300            0
gu9_tbd_ada_w_f_300             0
bu8_perry_ada_w_f_300            0
bu14_tbd_ada_w_f_300            0
bu9_serrano_ada_w_f_300            0
bu12_suarez_ada_w_f_300            0
gu11_cardinale_ada_w_f_300            0
bu11_anderson_ada_w_f_300            0
ada_w_f_330                     1
bu10_suarez_ada_w_f_330            0
gu9_tbd_ada_w_f_330             0
bu8_perry_ada_w_f_330            0
bu14_tbd_ada_w_f_330            0
bu9_serrano_ada_w_f_330            0
bu12_suarez_ada_w_f_330            0
gu11_cardinale_ada_w_f_330            0
bu11_anderson_ada_w_f_330            0
ada_w_f_400                     1
bu10_suarez_ada_w_f_400            0
gu13_tbd_ada_w_f_400            0
gu9_tbd_ada_w_f_400             0
bu8_perry_ada_w_f_400            0
bu9_serrano_ada_w_f_400            0
bu12_suarez_ada_w_f_400            0
gu11_cardinale_ada_w_f_400            0
bu11_anderson_ada_w_f_400            0
ada_w_f_430                     1
bu10_suarez_ada_w_f_430            0
gu13_tbd_ada_w_f_430            0
gu9_tbd_ada_w_f_430             0
bu8_perry_ada_w_f_430            0
bu9_serrano_ada_w_f_430            0
bu12_suarez_ada_w_f_430            0
gu11_cardinale_ada_w_f_430            0
bu11_anderson_ada_w_f_430            0
ada_w_f_500                     0
bu10_suarez_ada_w_f_500            0
gu9_tbd_ada_w_f_500             0
bu8_perry_ada_w_f_500            0
bu12_martin_ada_w_f_500            0
bu9_serrano_ada_w_f_500            0
bu12_suarez_ada_w_f_500            0
gu11_cardinale_ada_w_f_500            0
bu11_anderson_ada_w_f_500            0
ada_w_f_530                     0
bu10_suarez_ada_w_f_530            0
gu9_tbd_ada_w_f_530             0
bu8_perry_ada_w_f_530            0
bu12_martin_ada_w_f_530            0
bu9_serrano_ada_w_f_530            0
bu12_suarez_ada_w_f_530            0
gu11_cardinale_ada_w_f_530            0
bu11_anderson_ada_w_f_530            0
ada_e_w_300                     1
bu10_suarez_ada_e_w_300            0
gu9_tbd_ada_e_w_300             0
bu8_perry_ada_e_w_300            0
bu14_tbd_ada_e_w_300            0
bu9_serrano_ada_e_w_300            0
bu12_suarez_ada_e_w_300            0
gu11_cardinale_ada_e_w_300            0
bu11_anderson_ada_e_w_300            0
ada_e_w_330                     1
bu10_suarez_ada_e_w_330            0
gu9_tbd_ada_e_w_330             0
bu8_perry_ada_e_w_330            0
bu14_tbd_ada_e_w_330            0
bu9_serrano_ada_e_w_330            0
bu12_suarez_ada_e_w_330            0
gu11_cardinale_ada_e_w_330            0
bu11_anderson_ada_e_w_330            0
ada_e_w_400                     0
bu10_suarez_ada_e_w_400            0
gu13_tbd_ada_e_w_400            0
gu9_tbd_ada_e_w_400             0
bu8_perry_ada_e_w_400            0
bu9_serrano_ada_e_w_400            0
bu12_suarez_ada_e_w_400            0
gu11_cardinale_ada_e_w_400            0
bu11_anderson_ada_e_w_400            0
ada_e_w_430                     0
bu10_suarez_ada_e_w_430            0
gu13_tbd_ada_e_w_430            0
gu9_tbd_ada_e_w_430             0
bu8_perry_ada_e_w_430            0
bu9_serrano_ada_e_w_430            0
bu12_suarez_ada_e_w_430            0
gu11_cardinale_ada_e_w_430            0
bu11_anderson_ada_e_w_430            0
ada_e_w_500                     0
bu10_suarez_ada_e_w_500            0
gu9_tbd_ada_e_w_500             0
bu8_perry_ada_e_w_500            0
bu12_martin_ada_e_w_500            0
bu9_serrano_ada_e_w_500            0
bu12_suarez_ada_e_w_500            0
gu11_cardinale_ada_e_w_500            0
bu11_anderson_ada_e_w_500            0
ada_e_w_530                     0
bu10_suarez_ada_e_w_530            0
gu9_tbd_ada_e_w_530             0
bu8_perry_ada_e_w_530            0
bu12_martin_ada_e_w_530            0
bu9_serrano_ada_e_w_530            0
bu12_suarez_ada_e_w_530            0
gu11_cardinale_ada_e_w_530            0
bu11_anderson_ada_e_w_530            0
ada_e_f_300                     1
bu10_suarez_ada_e_f_300            0
gu9_tbd_ada_e_f_300             0
bu8_perry_ada_e_f_300            0
bu14_tbd_ada_e_f_300            0
bu9_serrano_ada_e_f_300            0
bu12_suarez_ada_e_f_300            0
gu11_cardinale_ada_e_f_300            0
bu11_anderson_ada_e_f_300            0
ada_e_f_330                     1
bu10_suarez_ada_e_f_330            0
gu9_tbd_ada_e_f_330             0
bu8_perry_ada_e_f_330            0
bu14_tbd_ada_e_f_330            0
bu9_serrano_ada_e_f_330            0
bu12_suarez_ada_e_f_330            0
gu11_cardinale_ada_e_f_330            0
bu11_anderson_ada_e_f_330            0
ada_e_f_400                     0
bu10_suarez_ada_e_f_400            0
gu13_tbd_ada_e_f_400            0
gu9_tbd_ada_e_f_400             0
bu8_perry_ada_e_f_400            0
bu9_serrano_ada_e_f_400            0
bu12_suarez_ada_e_f_400            0
gu11_cardinale_ada_e_f_400            0
bu11_anderson_ada_e_f_400            0
ada_e_f_430                     0
bu10_suarez_ada_e_f_430            0
gu13_tbd_ada_e_f_430            0
gu9_tbd_ada_e_f_430             0
bu8_perry_ada_e_f_430            0
bu9_serrano_ada_e_f_430            0
bu12_suarez_ada_e_f_430            0
gu11_cardinale_ada_e_f_430            0
bu11_anderson_ada_e_f_430            0
ada_e_f_500                     0
bu10_suarez_ada_e_f_500            0
gu9_tbd_ada_e_f_500             0
bu8_perry_ada_e_f_500            0
bu12_martin_ada_e_f_500            0
bu9_serrano_ada_e_f_500            0
bu12_suarez_ada_e_f_500            0
gu11_cardinale_ada_e_f_500            0
bu11_anderson_ada_e_f_500            0
ada_e_f_530                     0
bu10_suarez_ada_e_f_530            0
gu9_tbd_ada_e_f_530             0
bu8_perry_ada_e_f_530            0
bu12_martin_ada_e_f_530            0
bu9_serrano_ada_e_f_530            0
bu12_suarez_ada_e_f_530            0
gu11_cardinale_ada_e_f_530            0
bu11_anderson_ada_e_f_530            0
